n_boats=80;
n_periods=20;
capacity=[29,9,15,30,9,34,14,39,27,10,29,25,42,10,21,43,44,33,45,12,19,5,30,41,26,11,5,41,22,40,43,41,8,1,36,32,5,14,43,16,44,28,22,4,34,4,32,19,24,7,35,8,39,21,25,36,45,31,37,5,15,35,23,19,9,28,38,5,9,13,9,22,43,7,22,9,29,20,4,16];
crew=[18,2,13,30,1,25,11,22,15,10,14,19,34,2,12,19,15,20,16,6,12,1,13,26,23,4,3,31,1,6,19,32,7,1,36,7,3,6,15,13,36,14,12,3,19,4,27,1,19,4,7,3,5,10,3,28,7,18,14,4,4,35,21,5,8,22,18,4,1,1,2,17,14,6,6,8,2,13,2,13];
